language ESSENCE' 1.0

letting fixed be 
[
    [9,0,7,0,2,4,3,0,5],
    [8,4,2,3,6,5,9,1,7],
    [0,3,0,9,0,7,4,0,0],
    [0,0,4,0,0,9,6,0,0],
    [0,0,0,2,4,6,0,0,9],
    [0,0,9,0,0,0,0,4,0],
    [0,0,0,4,9,2,8,7,6],
    [7,9,6,0,5,0,2,3,4],
    [4,2,8,6,7,3,5,9,1]
]